NAME 
ROWS
 N  OBJ
 G  R0      
 G  R1      
 G  R2      
 G  R3      
 G  R4      
 G  R5      
 G  R6      
 G  R7      
 G  R8      
 G  R9      
 G  R10     
 G  R11     
 G  R12     
 G  R13     
 G  R14     
 G  R15     
 G  R16     
 G  R17     
 G  R18     
 G  R19     
 G  R20     
 G  R21     
 G  R22     
 G  R23     
 G  R24     
 G  R25     
 G  R26     
COLUMNS
    x0        OBJ       1
    x0        R0        1
    x0        R4        1
    x0        R5        1
    x0        R7        1
    x0        R8        1
    x0        R10       1
    x0        R11       1
    x0        R12       1
    x0        R15       1
    x0        R19       1
    x0        R20       1
    x0        R21       1
    x0        R24       1
    x1        OBJ       1
    x1        R1        1
    x1        R3        1
    x1        R5        1
    x1        R6        1
    x1        R8        1
    x1        R9        1
    x1        R11       1
    x1        R13       1
    x1        R16       1
    x1        R18       1
    x1        R20       1
    x1        R22       1
    x1        R25       1
    x2        OBJ       1
    x2        R2        1
    x2        R3        1
    x2        R4        1
    x2        R6        1
    x2        R7        1
    x2        R9        1
    x2        R10       1
    x2        R14       1
    x2        R17       1
    x2        R18       1
    x2        R19       1
    x2        R23       1
    x2        R26       1
    x3        OBJ       1
    x3        R1        1
    x3        R2        1
    x3        R3        1
    x3        R7        1
    x3        R8        1
    x3        R9        1
    x3        R13       1
    x3        R14       1
    x3        R15       1
    x3        R18       1
    x3        R22       1
    x3        R23       1
    x3        R24       1
    x4        OBJ       1
    x4        R0        1
    x4        R2        1
    x4        R4        1
    x4        R6        1
    x4        R8        1
    x4        R10       1
    x4        R12       1
    x4        R14       1
    x4        R16       1
    x4        R19       1
    x4        R21       1
    x4        R23       1
    x4        R25       1
    x5        OBJ       1
    x5        R0        1
    x5        R1        1
    x5        R5        1
    x5        R6        1
    x5        R7        1
    x5        R11       1
    x5        R12       1
    x5        R13       1
    x5        R17       1
    x5        R20       1
    x5        R21       1
    x5        R22       1
    x5        R26       1
    x6        OBJ       1
    x6        R1        1
    x6        R2        1
    x6        R4        1
    x6        R5        1
    x6        R6        1
    x6        R9        1
    x6        R12       1
    x6        R16       1
    x6        R17       1
    x6        R18       1
    x6        R21       1
    x6        R25       1
    x6        R26       1
    x7        OBJ       1
    x7        R0        1
    x7        R2        1
    x7        R3        1
    x7        R5        1
    x7        R7        1
    x7        R10       1
    x7        R13       1
    x7        R15       1
    x7        R17       1
    x7        R19       1
    x7        R22       1
    x7        R24       1
    x7        R26       1
    x8        OBJ       1
    x8        R0        1
    x8        R1        1
    x8        R3        1
    x8        R4        1
    x8        R8        1
    x8        R11       1
    x8        R14       1
    x8        R15       1
    x8        R16       1
    x8        R20       1
    x8        R23       1
    x8        R24       1
    x8        R25       1
    x9        OBJ       1
    x9        R1        1
    x9        R2        1
    x9        R3        1
    x9        R6        1
    x9        R9        1
    x9        R13       1
    x9        R14       1
    x9        R16       1
    x9        R17       1
    x9        R19       1
    x9        R20       1
    x9        R21       1
    x9        R24       1
    x10       OBJ       1
    x10       R0        1
    x10       R2        1
    x10       R4        1
    x10       R7        1
    x10       R10       1
    x10       R12       1
    x10       R14       1
    x10       R15       1
    x10       R17       1
    x10       R18       1
    x10       R20       1
    x10       R22       1
    x10       R25       1
    x11       OBJ       1
    x11       R0        1
    x11       R1        1
    x11       R5        1
    x11       R8        1
    x11       R11       1
    x11       R12       1
    x11       R13       1
    x11       R15       1
    x11       R16       1
    x11       R18       1
    x11       R19       1
    x11       R23       1
    x11       R26       1
    x12       OBJ       1
    x12       R0        1
    x12       R4        1
    x12       R5        1
    x12       R6        1
    x12       R10       1
    x12       R11       1
    x12       R12       1
    x12       R16       1
    x12       R17       1
    x12       R18       1
    x12       R22       1
    x12       R23       1
    x12       R24       1
    x13       OBJ       1
    x13       R1        1
    x13       R3        1
    x13       R5        1
    x13       R7        1
    x13       R9        1
    x13       R11       1
    x13       R13       1
    x13       R15       1
    x13       R17       1
    x13       R19       1
    x13       R21       1
    x13       R23       1
    x13       R25       1
    x14       OBJ       1
    x14       R2        1
    x14       R3        1
    x14       R4        1
    x14       R8        1
    x14       R9        1
    x14       R10       1
    x14       R14       1
    x14       R15       1
    x14       R16       1
    x14       R20       1
    x14       R21       1
    x14       R22       1
    x14       R26       1
    x15       OBJ       1
    x15       R0        1
    x15       R3        1
    x15       R7        1
    x15       R8        1
    x15       R10       1
    x15       R11       1
    x15       R13       1
    x15       R14       1
    x15       R15       1
    x15       R18       1
    x15       R21       1
    x15       R25       1
    x15       R26       1
    x16       OBJ       1
    x16       R1        1
    x16       R4        1
    x16       R6        1
    x16       R8        1
    x16       R9        1
    x16       R11       1
    x16       R12       1
    x16       R14       1
    x16       R16       1
    x16       R19       1
    x16       R22       1
    x16       R24       1
    x16       R26       1
    x17       OBJ       1
    x17       R2        1
    x17       R5        1
    x17       R6        1
    x17       R7        1
    x17       R9        1
    x17       R10       1
    x17       R12       1
    x17       R13       1
    x17       R17       1
    x17       R20       1
    x17       R23       1
    x17       R24       1
    x17       R25       1
    x18       OBJ       1
    x18       R1        1
    x18       R2        1
    x18       R3        1
    x18       R6        1
    x18       R10       1
    x18       R11       1
    x18       R12       1
    x18       R15       1
    x18       R18       1
    x18       R22       1
    x18       R23       1
    x18       R25       1
    x18       R26       1
    x19       OBJ       1
    x19       R0        1
    x19       R2        1
    x19       R4        1
    x19       R7        1
    x19       R9        1
    x19       R11       1
    x19       R13       1
    x19       R16       1
    x19       R19       1
    x19       R21       1
    x19       R23       1
    x19       R24       1
    x19       R26       1
    x20       OBJ       1
    x20       R0        1
    x20       R1        1
    x20       R5        1
    x20       R8        1
    x20       R9        1
    x20       R10       1
    x20       R14       1
    x20       R17       1
    x20       R20       1
    x20       R21       1
    x20       R22       1
    x20       R24       1
    x20       R25       1
    x21       OBJ       1
    x21       R0        1
    x21       R4        1
    x21       R5        1
    x21       R6        1
    x21       R9        1
    x21       R13       1
    x21       R14       1
    x21       R15       1
    x21       R19       1
    x21       R20       1
    x21       R21       1
    x21       R25       1
    x21       R26       1
    x22       OBJ       1
    x22       R1        1
    x22       R3        1
    x22       R5        1
    x22       R7        1
    x22       R10       1
    x22       R12       1
    x22       R14       1
    x22       R16       1
    x22       R18       1
    x22       R20       1
    x22       R22       1
    x22       R24       1
    x22       R26       1
    x23       OBJ       1
    x23       R2        1
    x23       R3        1
    x23       R4        1
    x23       R8        1
    x23       R11       1
    x23       R12       1
    x23       R13       1
    x23       R17       1
    x23       R18       1
    x23       R19       1
    x23       R23       1
    x23       R24       1
    x23       R25       1
    x24       OBJ       1
    x24       R0        1
    x24       R3        1
    x24       R7        1
    x24       R8        1
    x24       R9        1
    x24       R12       1
    x24       R16       1
    x24       R17       1
    x24       R19       1
    x24       R20       1
    x24       R22       1
    x24       R23       1
    x24       R24       1
    x25       OBJ       1
    x25       R1        1
    x25       R4        1
    x25       R6        1
    x25       R8        1
    x25       R10       1
    x25       R13       1
    x25       R15       1
    x25       R17       1
    x25       R18       1
    x25       R20       1
    x25       R21       1
    x25       R23       1
    x25       R25       1
    x26       OBJ       1
    x26       R2        1
    x26       R5        1
    x26       R6        1
    x26       R7        1
    x26       R11       1
    x26       R14       1
    x26       R15       1
    x26       R16       1
    x26       R18       1
    x26       R19       1
    x26       R21       1
    x26       R22       1
    x26       R26       1
RHS
    RHS1      R0        1
    RHS1      R1        1
    RHS1      R2        1
    RHS1      R3        1
    RHS1      R4        1
    RHS1      R5        1
    RHS1      R6        1
    RHS1      R7        1
    RHS1      R8        1
    RHS1      R9        1
    RHS1      R10       1
    RHS1      R11       1
    RHS1      R12       1
    RHS1      R13       1
    RHS1      R14       1
    RHS1      R15       1
    RHS1      R16       1
    RHS1      R17       1
    RHS1      R18       1
    RHS1      R19       1
    RHS1      R20       1
    RHS1      R21       1
    RHS1      R22       1
    RHS1      R23       1
    RHS1      R24       1
    RHS1      R25       1
    RHS1      R26       1
BOUNDS
 UP BND1      x0        1
 UP BND1      x1        1
 UP BND1      x2        1
 UP BND1      x3        1
 UP BND1      x4        1
 UP BND1      x5        1
 UP BND1      x6        1
 UP BND1      x7        1
 UP BND1      x8        1
 UP BND1      x9        1
 UP BND1      x10       1
 UP BND1      x11       1
 UP BND1      x12       1
 UP BND1      x13       1
 UP BND1      x14       1
 UP BND1      x15       1
 UP BND1      x16       1
 UP BND1      x17       1
 UP BND1      x18       1
 UP BND1      x19       1
 UP BND1      x20       1
 UP BND1      x21       1
 UP BND1      x22       1
 UP BND1      x23       1
 UP BND1      x24       1
 UP BND1      x25       1
 UP BND1      x26       1
ENDATA
